p tw 60 138
1 12
1 18
1 19
1 21
1 22
1 24
1 27
1 28
1 33
1 36
1 43
1 44
1 51
1 52
1 54
1 58
1 59
2 14
2 16
2 22
2 23
2 26
2 27
2 29
2 31
2 38
2 42
2 51
2 57
3 11
3 22
3 33
3 34
3 36
3 39
3 41
3 43
3 54
3 56
3 57
3 60
4 14
4 15
4 27
4 30
4 31
4 36
4 37
4 39
4 40
4 43
4 47
4 49
4 50
4 55
5 12
5 16
5 25
5 28
5 30
5 36
5 45
5 48
5 50
5 51
5 52
5 56
6 13
6 14
6 15
6 18
6 23
6 24
6 26
6 27
6 32
6 34
6 36
6 39
6 40
6 53
6 56
7 13
7 14
7 15
7 20
7 23
7 25
7 29
7 31
7 33
7 35
7 40
7 41
7 42
7 43
7 45
7 46
7 53
7 54
7 55
8 14
8 15
8 22
8 30
8 32
8 34
8 37
8 41
8 46
8 50
8 54
9 11
9 21
9 24
9 27
9 34
9 42
9 43
9 44
9 45
9 46
9 47
9 50
9 54
9 56
10 11
10 16
10 17
10 19
10 20
10 23
10 29
10 32
10 36
10 40
10 42
10 49
